18 4
68 51 79 99 63 49 28 75 53 29 91 85 23 12 48 40 98 51
76 82 79 66 86 46 79 71 71 51 28 40 30 27 86 64 32 49
84 97 43 73 73 36 90 64 37 28 83 47 83 20 78 63 18 24
31 33 77 84 91 53 24 13 50 43 70 17 24 58 21 36 15 100
